24 100000
95 88595
53 72135
26 76669
48 55490
61 62457
66 91112
18 6646
50 18732
80 4490
24 89375
32 92816
58 26507
56 54861
17 51104
83 24273
18 14216
82 36778
7 61272
89 6076
75 74868
12 67150
78 71760
16 29037
44 54009
